(declare-fun bvlambda_35_ ()Bool         )
(declare-fun bvlambda_43_ ()Bool         )
(declare-fun bvlambda_44_ () (_ BitVec 2))
(declare-fun a101 () (Array (_ BitVec 1) (_ BitVec 4)))
(assert
(let (($e5 (_ bv2020 13)))
(let (($e11 false    ))
(let (($e13 (_ bv0 3)))
(let (($e15 (_ bv0 8)))
(let (($e213                $e15               ))
(let (($e214 (concat $e213 bvlambda_35_)))
(let (($e215                           $e214       ))
(let (($e222 (concat        $e11  $e215)))
(let (($e223                    $e222       ))
(let (($e224         $e223                             ))
(let (($e227                                  $e224 ))
(let (($e228                  $e227 ))
(let (($e233                    $e228       ))
(let (($e234 (concat $e13 $e233)))
(let (($e235      (bvult $e5 $e234)         ))
(let (($e377 (concat bvlambda_43_ bvlambda_43_)))
(let (($e378 (concat $e377 bvlambda_44_)))
(let (($e379 (store a101 true        $e378)))
(
                 extract(select $e379(bvnot $e235))
                                                                                                                                                                                                                                                                                                                                                                                                                                                                                                                                         ))))                                                                                                                                             )))    ))  )))      )))                                                                                                                                                ) ) )     )    )
